162950.36,53.53,66.38
182357.31,47.83,59.32
169589.16,51.43,63.78
179541.31,48.58,60.25
149085.62,58.51,72.55
177981.17,49.01,60.78
161962.0,53.86,66.79
168843.05,51.66,64.06
158983.33,54.86,68.04
172312.46,50.62,62.77
142261.39,61.31,76.03
166996.55,52.23,64.77
169801.33,51.37,63.7
166616.19,52.35,64.92
166556.14,52.37,64.94
161195.65,54.11,67.1
157926.51,55.23,68.49
169918.05,51.33,63.66
169260.74,51.53,63.91
172802.91,50.48,62.6
